(set-logic QF_S)
(declare-fun var0 () String)
(assert (RegexIn var0 (RegexConcat (RegexStar (RegexPlus (Str2Reg "000"))) (RegexConcat (RegexPlus (RegexPlus (Str2Reg "111"))) (RegexConcat (RegexPlus (RegexPlus (Str2Reg "22"))) (RegexConcat (RegexPlus (RegexStar (Str2Reg "333"))) (RegexConcat (RegexPlus (RegexPlus (Str2Reg "44"))) (RegexConcat (RegexStar (RegexStar (Str2Reg "555"))) (RegexConcat (RegexStar (RegexStar (Str2Reg "666"))) (RegexConcat (RegexUnion (RegexPlus (Str2Reg "7")) (RegexPlus (Str2Reg "888"))) (RegexConcat (RegexUnion (RegexUnion (Str2Reg "9") (Str2Reg "a")) (RegexUnion (Str2Reg "bb") (Str2Reg "cc"))) (RegexConcat (RegexPlus (RegexUnion (Str2Reg "ddd") (Str2Reg "eee"))) (RegexConcat (RegexUnion (RegexUnion (Str2Reg "ff") (Str2Reg "ggg")) (RegexUnion (Str2Reg "hh") (Str2Reg "ii"))) (RegexConcat (RegexPlus (RegexStar (Str2Reg "j"))) (RegexConcat (RegexPlus (RegexStar (Str2Reg "k"))) (RegexConcat (RegexPlus (RegexPlus (Str2Reg "ll"))) (RegexConcat (RegexPlus (RegexStar (Str2Reg "mm"))) (RegexConcat (RegexPlus (RegexStar (Str2Reg "nnn"))) (RegexConcat (RegexStar (RegexPlus (Str2Reg "o"))) (RegexConcat (RegexStar (RegexPlus (Str2Reg "ppp"))) (RegexConcat (RegexPlus (RegexStar (Str2Reg "q"))) (RegexConcat (RegexPlus (RegexPlus (Str2Reg "rrr"))) (RegexConcat (RegexStar (RegexStar (Str2Reg "sss"))) (RegexConcat (RegexUnion (RegexUnion (Str2Reg "tt") (Str2Reg "uu")) (RegexUnion (Str2Reg "vv") (Str2Reg "ww"))) (RegexConcat (RegexUnion (RegexUnion (Str2Reg "xxx") (Str2Reg "yyy")) (RegexUnion (Str2Reg "z") (Str2Reg "A"))) (RegexConcat (RegexStar (RegexUnion (Str2Reg "BBB") (Str2Reg "CCC"))) (RegexConcat (RegexPlus (RegexUnion (Str2Reg "D") (Str2Reg "EEE"))) (RegexConcat (RegexUnion (RegexStar (Str2Reg "FF")) (RegexStar (Str2Reg "G"))) (RegexConcat (RegexStar (RegexUnion (Str2Reg "HH") (Str2Reg "III"))) (RegexConcat (RegexPlus (RegexStar (Str2Reg "J"))) (RegexStar (RegexStar (Str2Reg "KKK")))))))))))))))))))))))))))))))))
(check-sat)